12
0   15  25  30  40  10  50  20  15  35  20  10
15  0   20  45  30  25  15  10  25  40  10  20
25  20  0   15  25  45  30  20  35  10  25  30
30  45  15  0   20  10  25  35  15  20  45  25
40  30  25  20  0   15  35  25  10  30  20  40
10  25  45  10  15  0   20  30  25  15  40  35
50  15  30  25  35  20  0   10  25  45  30  15
20  10  20  35  25  30  10  0   15  20  10  25
15  25  35  15  10  25  25  15  0   20  30  15
35  40  10  20  30  15  45  20  20  0   15  10
20  10  25  45  20  40  30  10  30  15  0   20
10  20  30  25  40  35  15  25  15  10  20  0